(set-logic QF_LRA)
(declare-fun T1 () Real )
(declare-fun T2 () Real )
(declare-fun T3 () Real )
(declare-fun T4 () Real )
(declare-fun T5 () Real )
(declare-fun T6 () Real )
(declare-fun T7 () Real )
(declare-fun T8 () Real )
(declare-fun T9 () Real )
(declare-fun T10 () Real )
(declare-fun Z () Real )
(declare-fun k () Real )
(assert (let
(( $goal (>= Z k) ))
(let
((
$phi ( and 
(or ( <= ( + T1 15 ) T2 ) ( <= ( + T2 62 ) T1 ) )
(or ( <= ( + T1 55 )  ( + T2 62 ) ) ( <= ( + T2 98 )( + T1 15 ) ) )
(or ( <= ( + T1 114 )  ( + T2 98 ) ) ( <= ( + T2 122 )( + T1 55 ) ) )
(or ( <= ( + T1 138 )  ( + T2 122 ) ) ( <= ( + T2 208 )( + T1 114 ) ) )
(or ( <= ( + T1 204 )  ( + T2 208 ) ) ( <= ( + T2 274 )( + T1 138 ) ) )
(or ( <= ( + T1 273 )  ( + T2 274 ) ) ( <= ( + T2 369 )( + T1 204 ) ) )
(or ( <= ( + T1 354 )  ( + T2 369 ) ) ( <= ( + T2 393 )( + T1 273 ) ) )
(or ( <= ( + T1 444 )  ( + T2 393 ) ) ( <= ( + T2 439 )( + T1 354 ) ) )
(or ( <= ( + T1 518 )  ( + T2 439 ) ) ( <= ( + T2 497 )( + T1 444 ) ) )
(or ( <= ( + T1 593 )  ( + T2 497 ) ) ( <= ( + T2 503 )( + T1 518 ) ) )
(or ( <= ( + T1 648 )  ( + T2 503 ) ) ( <= ( + T2 582 )( + T1 593 ) ) )
(or ( <= ( + T1 650 )  ( + T2 582 ) ) ( <= ( + T2 597 )( + T1 648 ) ) )
(or ( <= ( + T1 15 ) T3 ) ( <= ( + T3 15 ) T1 ) )
(or ( <= ( + T1 55 )  ( + T3 15 ) ) ( <= ( + T3 40 )( + T1 15 ) ) )
(or ( <= ( + T1 114 )  ( + T3 40 ) ) ( <= ( + T3 91 )( + T1 55 ) ) )
(or ( <= ( + T1 138 )  ( + T3 91 ) ) ( <= ( + T3 139 )( + T1 114 ) ) )
(or ( <= ( + T1 204 )  ( + T3 139 ) ) ( <= ( + T3 170 )( + T1 138 ) ) )
(or ( <= ( + T1 273 )  ( + T3 170 ) ) ( <= ( + T3 247 )( + T1 204 ) ) )
(or ( <= ( + T1 354 )  ( + T3 247 ) ) ( <= ( + T3 332 )( + T1 273 ) ) )
(or ( <= ( + T1 444 )  ( + T3 332 ) ) ( <= ( + T3 377 )( + T1 354 ) ) )
(or ( <= ( + T1 518 )  ( + T3 377 ) ) ( <= ( + T3 445 )( + T1 444 ) ) )
(or ( <= ( + T1 593 )  ( + T3 445 ) ) ( <= ( + T3 488 )( + T1 518 ) ) )
(or ( <= ( + T1 648 )  ( + T3 488 ) ) ( <= ( + T3 556 )( + T1 593 ) ) )
(or ( <= ( + T1 650 )  ( + T3 556 ) ) ( <= ( + T3 589 )( + T1 648 ) ) )
(or ( <= ( + T1 15 ) T4 ) ( <= ( + T4 11 ) T1 ) )
(or ( <= ( + T1 55 )  ( + T4 11 ) ) ( <= ( + T4 111 )( + T1 15 ) ) )
(or ( <= ( + T1 114 )  ( + T4 111 ) ) ( <= ( + T4 134 )( + T1 55 ) ) )
(or ( <= ( + T1 138 )  ( + T4 134 ) ) ( <= ( + T4 171 )( + T1 114 ) ) )
(or ( <= ( + T1 204 )  ( + T4 171 ) ) ( <= ( + T4 246 )( + T1 138 ) ) )
(or ( <= ( + T1 273 )  ( + T4 246 ) ) ( <= ( + T4 275 )( + T1 204 ) ) )
(or ( <= ( + T1 354 )  ( + T4 275 ) ) ( <= ( + T4 365 )( + T1 273 ) ) )
(or ( <= ( + T1 444 )  ( + T4 365 ) ) ( <= ( + T4 453 )( + T1 354 ) ) )
(or ( <= ( + T1 518 )  ( + T4 453 ) ) ( <= ( + T4 518 )( + T1 444 ) ) )
(or ( <= ( + T1 593 )  ( + T4 518 ) ) ( <= ( + T4 532 )( + T1 518 ) ) )
(or ( <= ( + T1 648 )  ( + T4 532 ) ) ( <= ( + T4 606 )( + T1 593 ) ) )
(or ( <= ( + T1 650 )  ( + T4 606 ) ) ( <= ( + T4 688 )( + T1 648 ) ) )
(or ( <= ( + T1 15 ) T5 ) ( <= ( + T5 8 ) T1 ) )
(or ( <= ( + T1 55 )  ( + T5 8 ) ) ( <= ( + T5 105 )( + T1 15 ) ) )
(or ( <= ( + T1 114 )  ( + T5 105 ) ) ( <= ( + T5 184 )( + T1 55 ) ) )
(or ( <= ( + T1 138 )  ( + T5 184 ) ) ( <= ( + T5 201 )( + T1 114 ) ) )
(or ( <= ( + T1 204 )  ( + T5 201 ) ) ( <= ( + T5 255 )( + T1 138 ) ) )
(or ( <= ( + T1 273 )  ( + T5 255 ) ) ( <= ( + T5 264 )( + T1 204 ) ) )
(or ( <= ( + T1 354 )  ( + T5 264 ) ) ( <= ( + T5 295 )( + T1 273 ) ) )
(or ( <= ( + T1 444 )  ( + T5 295 ) ) ( <= ( + T5 315 )( + T1 354 ) ) )
(or ( <= ( + T1 518 )  ( + T5 315 ) ) ( <= ( + T5 348 )( + T1 444 ) ) )
(or ( <= ( + T1 593 )  ( + T5 348 ) ) ( <= ( + T5 381 )( + T1 518 ) ) )
(or ( <= ( + T1 648 )  ( + T5 381 ) ) ( <= ( + T5 448 )( + T1 593 ) ) )
(or ( <= ( + T1 650 )  ( + T5 448 ) ) ( <= ( + T5 512 )( + T1 648 ) ) )
(or ( <= ( + T1 15 ) T6 ) ( <= ( + T6 61 ) T1 ) )
(or ( <= ( + T1 55 )  ( + T6 61 ) ) ( <= ( + T6 112 )( + T1 15 ) ) )
(or ( <= ( + T1 114 )  ( + T6 112 ) ) ( <= ( + T6 120 )( + T1 55 ) ) )
(or ( <= ( + T1 138 )  ( + T6 120 ) ) ( <= ( + T6 149 )( + T1 114 ) ) )
(or ( <= ( + T1 204 )  ( + T6 149 ) ) ( <= ( + T6 194 )( + T1 138 ) ) )
(or ( <= ( + T1 273 )  ( + T6 194 ) ) ( <= ( + T6 222 )( + T1 204 ) ) )
(or ( <= ( + T1 354 )  ( + T6 222 ) ) ( <= ( + T6 235 )( + T1 273 ) ) )
(or ( <= ( + T1 444 )  ( + T6 235 ) ) ( <= ( + T6 243 )( + T1 354 ) ) )
(or ( <= ( + T1 518 )  ( + T6 243 ) ) ( <= ( + T6 322 )( + T1 444 ) ) )
(or ( <= ( + T1 593 )  ( + T6 322 ) ) ( <= ( + T6 409 )( + T1 518 ) ) )
(or ( <= ( + T1 648 )  ( + T6 409 ) ) ( <= ( + T6 505 )( + T1 593 ) ) )
(or ( <= ( + T1 650 )  ( + T6 505 ) ) ( <= ( + T6 558 )( + T1 648 ) ) )
(or ( <= ( + T1 15 ) T7 ) ( <= ( + T7 16 ) T1 ) )
(or ( <= ( + T1 55 )  ( + T7 16 ) ) ( <= ( + T7 101 )( + T1 15 ) ) )
(or ( <= ( + T1 114 )  ( + T7 101 ) ) ( <= ( + T7 194 )( + T1 55 ) ) )
(or ( <= ( + T1 138 )  ( + T7 194 ) ) ( <= ( + T7 226 )( + T1 114 ) ) )
(or ( <= ( + T1 204 )  ( + T7 226 ) ) ( <= ( + T7 276 )( + T1 138 ) ) )
(or ( <= ( + T1 273 )  ( + T7 276 ) ) ( <= ( + T7 342 )( + T1 204 ) ) )
(or ( <= ( + T1 354 )  ( + T7 342 ) ) ( <= ( + T7 355 )( + T1 273 ) ) )
(or ( <= ( + T1 444 )  ( + T7 355 ) ) ( <= ( + T7 364 )( + T1 354 ) ) )
(or ( <= ( + T1 518 )  ( + T7 364 ) ) ( <= ( + T7 378 )( + T1 444 ) ) )
(or ( <= ( + T1 593 )  ( + T7 378 ) ) ( <= ( + T7 470 )( + T1 518 ) ) )
(or ( <= ( + T1 648 )  ( + T7 470 ) ) ( <= ( + T7 495 )( + T1 593 ) ) )
(or ( <= ( + T1 650 )  ( + T7 495 ) ) ( <= ( + T7 514 )( + T1 648 ) ) )
(or ( <= ( + T1 15 ) T8 ) ( <= ( + T8 100 ) T1 ) )
(or ( <= ( + T1 55 )  ( + T8 100 ) ) ( <= ( + T8 107 )( + T1 15 ) ) )
(or ( <= ( + T1 114 )  ( + T8 107 ) ) ( <= ( + T8 145 )( + T1 55 ) ) )
(or ( <= ( + T1 138 )  ( + T8 145 ) ) ( <= ( + T8 230 )( + T1 114 ) ) )
(or ( <= ( + T1 204 )  ( + T8 230 ) ) ( <= ( + T8 270 )( + T1 138 ) ) )
(or ( <= ( + T1 273 )  ( + T8 270 ) ) ( <= ( + T8 327 )( + T1 204 ) ) )
(or ( <= ( + T1 354 )  ( + T8 327 ) ) ( <= ( + T8 375 )( + T1 273 ) ) )
(or ( <= ( + T1 444 )  ( + T8 375 ) ) ( <= ( + T8 427 )( + T1 354 ) ) )
(or ( <= ( + T1 518 )  ( + T8 427 ) ) ( <= ( + T8 486 )( + T1 444 ) ) )
(or ( <= ( + T1 593 )  ( + T8 486 ) ) ( <= ( + T8 493 )( + T1 518 ) ) )
(or ( <= ( + T1 648 )  ( + T8 493 ) ) ( <= ( + T8 525 )( + T1 593 ) ) )
(or ( <= ( + T1 650 )  ( + T8 525 ) ) ( <= ( + T8 529 )( + T1 648 ) ) )
(or ( <= ( + T1 15 ) T9 ) ( <= ( + T9 86 ) T1 ) )
(or ( <= ( + T1 55 )  ( + T9 86 ) ) ( <= ( + T9 131 )( + T1 15 ) ) )
(or ( <= ( + T1 114 )  ( + T9 131 ) ) ( <= ( + T9 194 )( + T1 55 ) ) )
(or ( <= ( + T1 138 )  ( + T9 194 ) ) ( <= ( + T9 259 )( + T1 114 ) ) )
(or ( <= ( + T1 204 )  ( + T9 259 ) ) ( <= ( + T9 290 )( + T1 138 ) ) )
(or ( <= ( + T1 273 )  ( + T9 290 ) ) ( <= ( + T9 300 )( + T1 204 ) ) )
(or ( <= ( + T1 354 )  ( + T9 300 ) ) ( <= ( + T9 317 )( + T1 273 ) ) )
(or ( <= ( + T1 444 )  ( + T9 317 ) ) ( <= ( + T9 415 )( + T1 354 ) ) )
(or ( <= ( + T1 518 )  ( + T9 415 ) ) ( <= ( + T9 461 )( + T1 444 ) ) )
(or ( <= ( + T1 593 )  ( + T9 461 ) ) ( <= ( + T9 522 )( + T1 518 ) ) )
(or ( <= ( + T1 648 )  ( + T9 522 ) ) ( <= ( + T9 551 )( + T1 593 ) ) )
(or ( <= ( + T1 650 )  ( + T9 551 ) ) ( <= ( + T9 647 )( + T1 648 ) ) )
(or ( <= ( + T1 15 ) T10 ) ( <= ( + T10 26 ) T1 ) )
(or ( <= ( + T1 55 )  ( + T10 26 ) ) ( <= ( + T10 120 )( + T1 15 ) ) )
(or ( <= ( + T1 114 )  ( + T10 120 ) ) ( <= ( + T10 124 )( + T1 55 ) ) )
(or ( <= ( + T1 138 )  ( + T10 124 ) ) ( <= ( + T10 215 )( + T1 114 ) ) )
(or ( <= ( + T1 204 )  ( + T10 215 ) ) ( <= ( + T10 300 )( + T1 138 ) ) )
(or ( <= ( + T1 273 )  ( + T10 300 ) ) ( <= ( + T10 381 )( + T1 204 ) ) )
(or ( <= ( + T1 354 )  ( + T10 381 ) ) ( <= ( + T10 390 )( + T1 273 ) ) )
(or ( <= ( + T1 444 )  ( + T10 390 ) ) ( <= ( + T10 426 )( + T1 354 ) ) )
(or ( <= ( + T1 518 )  ( + T10 426 ) ) ( <= ( + T10 513 )( + T1 444 ) ) )
(or ( <= ( + T1 593 )  ( + T10 513 ) ) ( <= ( + T10 560 )( + T1 518 ) ) )
(or ( <= ( + T1 648 )  ( + T10 560 ) ) ( <= ( + T10 580 )( + T1 593 ) ) )
(or ( <= ( + T1 650 )  ( + T10 580 ) ) ( <= ( + T10 658 )( + T1 648 ) ) )
(or ( <= ( + T2 62 ) T3 ) ( <= ( + T3 15 ) T2 ) )
(or ( <= ( + T2 98 )  ( + T3 15 ) ) ( <= ( + T3 40 )( + T2 62 ) ) )
(or ( <= ( + T2 122 )  ( + T3 40 ) ) ( <= ( + T3 91 )( + T2 98 ) ) )
(or ( <= ( + T2 208 )  ( + T3 91 ) ) ( <= ( + T3 139 )( + T2 122 ) ) )
(or ( <= ( + T2 274 )  ( + T3 139 ) ) ( <= ( + T3 170 )( + T2 208 ) ) )
(or ( <= ( + T2 369 )  ( + T3 170 ) ) ( <= ( + T3 247 )( + T2 274 ) ) )
(or ( <= ( + T2 393 )  ( + T3 247 ) ) ( <= ( + T3 332 )( + T2 369 ) ) )
(or ( <= ( + T2 439 )  ( + T3 332 ) ) ( <= ( + T3 377 )( + T2 393 ) ) )
(or ( <= ( + T2 497 )  ( + T3 377 ) ) ( <= ( + T3 445 )( + T2 439 ) ) )
(or ( <= ( + T2 503 )  ( + T3 445 ) ) ( <= ( + T3 488 )( + T2 497 ) ) )
(or ( <= ( + T2 582 )  ( + T3 488 ) ) ( <= ( + T3 556 )( + T2 503 ) ) )
(or ( <= ( + T2 597 )  ( + T3 556 ) ) ( <= ( + T3 589 )( + T2 582 ) ) )
(or ( <= ( + T2 62 ) T4 ) ( <= ( + T4 11 ) T2 ) )
(or ( <= ( + T2 98 )  ( + T4 11 ) ) ( <= ( + T4 111 )( + T2 62 ) ) )
(or ( <= ( + T2 122 )  ( + T4 111 ) ) ( <= ( + T4 134 )( + T2 98 ) ) )
(or ( <= ( + T2 208 )  ( + T4 134 ) ) ( <= ( + T4 171 )( + T2 122 ) ) )
(or ( <= ( + T2 274 )  ( + T4 171 ) ) ( <= ( + T4 246 )( + T2 208 ) ) )
(or ( <= ( + T2 369 )  ( + T4 246 ) ) ( <= ( + T4 275 )( + T2 274 ) ) )
(or ( <= ( + T2 393 )  ( + T4 275 ) ) ( <= ( + T4 365 )( + T2 369 ) ) )
(or ( <= ( + T2 439 )  ( + T4 365 ) ) ( <= ( + T4 453 )( + T2 393 ) ) )
(or ( <= ( + T2 497 )  ( + T4 453 ) ) ( <= ( + T4 518 )( + T2 439 ) ) )
(or ( <= ( + T2 503 )  ( + T4 518 ) ) ( <= ( + T4 532 )( + T2 497 ) ) )
(or ( <= ( + T2 582 )  ( + T4 532 ) ) ( <= ( + T4 606 )( + T2 503 ) ) )
(or ( <= ( + T2 597 )  ( + T4 606 ) ) ( <= ( + T4 688 )( + T2 582 ) ) )
(or ( <= ( + T2 62 ) T5 ) ( <= ( + T5 8 ) T2 ) )
(or ( <= ( + T2 98 )  ( + T5 8 ) ) ( <= ( + T5 105 )( + T2 62 ) ) )
(or ( <= ( + T2 122 )  ( + T5 105 ) ) ( <= ( + T5 184 )( + T2 98 ) ) )
(or ( <= ( + T2 208 )  ( + T5 184 ) ) ( <= ( + T5 201 )( + T2 122 ) ) )
(or ( <= ( + T2 274 )  ( + T5 201 ) ) ( <= ( + T5 255 )( + T2 208 ) ) )
(or ( <= ( + T2 369 )  ( + T5 255 ) ) ( <= ( + T5 264 )( + T2 274 ) ) )
(or ( <= ( + T2 393 )  ( + T5 264 ) ) ( <= ( + T5 295 )( + T2 369 ) ) )
(or ( <= ( + T2 439 )  ( + T5 295 ) ) ( <= ( + T5 315 )( + T2 393 ) ) )
(or ( <= ( + T2 497 )  ( + T5 315 ) ) ( <= ( + T5 348 )( + T2 439 ) ) )
(or ( <= ( + T2 503 )  ( + T5 348 ) ) ( <= ( + T5 381 )( + T2 497 ) ) )
(or ( <= ( + T2 582 )  ( + T5 381 ) ) ( <= ( + T5 448 )( + T2 503 ) ) )
(or ( <= ( + T2 597 )  ( + T5 448 ) ) ( <= ( + T5 512 )( + T2 582 ) ) )
(or ( <= ( + T2 62 ) T6 ) ( <= ( + T6 61 ) T2 ) )
(or ( <= ( + T2 98 )  ( + T6 61 ) ) ( <= ( + T6 112 )( + T2 62 ) ) )
(or ( <= ( + T2 122 )  ( + T6 112 ) ) ( <= ( + T6 120 )( + T2 98 ) ) )
(or ( <= ( + T2 208 )  ( + T6 120 ) ) ( <= ( + T6 149 )( + T2 122 ) ) )
(or ( <= ( + T2 274 )  ( + T6 149 ) ) ( <= ( + T6 194 )( + T2 208 ) ) )
(or ( <= ( + T2 369 )  ( + T6 194 ) ) ( <= ( + T6 222 )( + T2 274 ) ) )
(or ( <= ( + T2 393 )  ( + T6 222 ) ) ( <= ( + T6 235 )( + T2 369 ) ) )
(or ( <= ( + T2 439 )  ( + T6 235 ) ) ( <= ( + T6 243 )( + T2 393 ) ) )
(or ( <= ( + T2 497 )  ( + T6 243 ) ) ( <= ( + T6 322 )( + T2 439 ) ) )
(or ( <= ( + T2 503 )  ( + T6 322 ) ) ( <= ( + T6 409 )( + T2 497 ) ) )
(or ( <= ( + T2 582 )  ( + T6 409 ) ) ( <= ( + T6 505 )( + T2 503 ) ) )
(or ( <= ( + T2 597 )  ( + T6 505 ) ) ( <= ( + T6 558 )( + T2 582 ) ) )
(or ( <= ( + T2 62 ) T7 ) ( <= ( + T7 16 ) T2 ) )
(or ( <= ( + T2 98 )  ( + T7 16 ) ) ( <= ( + T7 101 )( + T2 62 ) ) )
(or ( <= ( + T2 122 )  ( + T7 101 ) ) ( <= ( + T7 194 )( + T2 98 ) ) )
(or ( <= ( + T2 208 )  ( + T7 194 ) ) ( <= ( + T7 226 )( + T2 122 ) ) )
(or ( <= ( + T2 274 )  ( + T7 226 ) ) ( <= ( + T7 276 )( + T2 208 ) ) )
(or ( <= ( + T2 369 )  ( + T7 276 ) ) ( <= ( + T7 342 )( + T2 274 ) ) )
(or ( <= ( + T2 393 )  ( + T7 342 ) ) ( <= ( + T7 355 )( + T2 369 ) ) )
(or ( <= ( + T2 439 )  ( + T7 355 ) ) ( <= ( + T7 364 )( + T2 393 ) ) )
(or ( <= ( + T2 497 )  ( + T7 364 ) ) ( <= ( + T7 378 )( + T2 439 ) ) )
(or ( <= ( + T2 503 )  ( + T7 378 ) ) ( <= ( + T7 470 )( + T2 497 ) ) )
(or ( <= ( + T2 582 )  ( + T7 470 ) ) ( <= ( + T7 495 )( + T2 503 ) ) )
(or ( <= ( + T2 597 )  ( + T7 495 ) ) ( <= ( + T7 514 )( + T2 582 ) ) )
(or ( <= ( + T2 62 ) T8 ) ( <= ( + T8 100 ) T2 ) )
(or ( <= ( + T2 98 )  ( + T8 100 ) ) ( <= ( + T8 107 )( + T2 62 ) ) )
(or ( <= ( + T2 122 )  ( + T8 107 ) ) ( <= ( + T8 145 )( + T2 98 ) ) )
(or ( <= ( + T2 208 )  ( + T8 145 ) ) ( <= ( + T8 230 )( + T2 122 ) ) )
(or ( <= ( + T2 274 )  ( + T8 230 ) ) ( <= ( + T8 270 )( + T2 208 ) ) )
(or ( <= ( + T2 369 )  ( + T8 270 ) ) ( <= ( + T8 327 )( + T2 274 ) ) )
(or ( <= ( + T2 393 )  ( + T8 327 ) ) ( <= ( + T8 375 )( + T2 369 ) ) )
(or ( <= ( + T2 439 )  ( + T8 375 ) ) ( <= ( + T8 427 )( + T2 393 ) ) )
(or ( <= ( + T2 497 )  ( + T8 427 ) ) ( <= ( + T8 486 )( + T2 439 ) ) )
(or ( <= ( + T2 503 )  ( + T8 486 ) ) ( <= ( + T8 493 )( + T2 497 ) ) )
(or ( <= ( + T2 582 )  ( + T8 493 ) ) ( <= ( + T8 525 )( + T2 503 ) ) )
(or ( <= ( + T2 597 )  ( + T8 525 ) ) ( <= ( + T8 529 )( + T2 582 ) ) )
(or ( <= ( + T2 62 ) T9 ) ( <= ( + T9 86 ) T2 ) )
(or ( <= ( + T2 98 )  ( + T9 86 ) ) ( <= ( + T9 131 )( + T2 62 ) ) )
(or ( <= ( + T2 122 )  ( + T9 131 ) ) ( <= ( + T9 194 )( + T2 98 ) ) )
(or ( <= ( + T2 208 )  ( + T9 194 ) ) ( <= ( + T9 259 )( + T2 122 ) ) )
(or ( <= ( + T2 274 )  ( + T9 259 ) ) ( <= ( + T9 290 )( + T2 208 ) ) )
(or ( <= ( + T2 369 )  ( + T9 290 ) ) ( <= ( + T9 300 )( + T2 274 ) ) )
(or ( <= ( + T2 393 )  ( + T9 300 ) ) ( <= ( + T9 317 )( + T2 369 ) ) )
(or ( <= ( + T2 439 )  ( + T9 317 ) ) ( <= ( + T9 415 )( + T2 393 ) ) )
(or ( <= ( + T2 497 )  ( + T9 415 ) ) ( <= ( + T9 461 )( + T2 439 ) ) )
(or ( <= ( + T2 503 )  ( + T9 461 ) ) ( <= ( + T9 522 )( + T2 497 ) ) )
(or ( <= ( + T2 582 )  ( + T9 522 ) ) ( <= ( + T9 551 )( + T2 503 ) ) )
(or ( <= ( + T2 597 )  ( + T9 551 ) ) ( <= ( + T9 647 )( + T2 582 ) ) )
(or ( <= ( + T2 62 ) T10 ) ( <= ( + T10 26 ) T2 ) )
(or ( <= ( + T2 98 )  ( + T10 26 ) ) ( <= ( + T10 120 )( + T2 62 ) ) )
(or ( <= ( + T2 122 )  ( + T10 120 ) ) ( <= ( + T10 124 )( + T2 98 ) ) )
(or ( <= ( + T2 208 )  ( + T10 124 ) ) ( <= ( + T10 215 )( + T2 122 ) ) )
(or ( <= ( + T2 274 )  ( + T10 215 ) ) ( <= ( + T10 300 )( + T2 208 ) ) )
(or ( <= ( + T2 369 )  ( + T10 300 ) ) ( <= ( + T10 381 )( + T2 274 ) ) )
(or ( <= ( + T2 393 )  ( + T10 381 ) ) ( <= ( + T10 390 )( + T2 369 ) ) )
(or ( <= ( + T2 439 )  ( + T10 390 ) ) ( <= ( + T10 426 )( + T2 393 ) ) )
(or ( <= ( + T2 497 )  ( + T10 426 ) ) ( <= ( + T10 513 )( + T2 439 ) ) )
(or ( <= ( + T2 503 )  ( + T10 513 ) ) ( <= ( + T10 560 )( + T2 497 ) ) )
(or ( <= ( + T2 582 )  ( + T10 560 ) ) ( <= ( + T10 580 )( + T2 503 ) ) )
(or ( <= ( + T2 597 )  ( + T10 580 ) ) ( <= ( + T10 658 )( + T2 582 ) ) )
(or ( <= ( + T3 15 ) T4 ) ( <= ( + T4 11 ) T3 ) )
(or ( <= ( + T3 40 )  ( + T4 11 ) ) ( <= ( + T4 111 )( + T3 15 ) ) )
(or ( <= ( + T3 91 )  ( + T4 111 ) ) ( <= ( + T4 134 )( + T3 40 ) ) )
(or ( <= ( + T3 139 )  ( + T4 134 ) ) ( <= ( + T4 171 )( + T3 91 ) ) )
(or ( <= ( + T3 170 )  ( + T4 171 ) ) ( <= ( + T4 246 )( + T3 139 ) ) )
(or ( <= ( + T3 247 )  ( + T4 246 ) ) ( <= ( + T4 275 )( + T3 170 ) ) )
(or ( <= ( + T3 332 )  ( + T4 275 ) ) ( <= ( + T4 365 )( + T3 247 ) ) )
(or ( <= ( + T3 377 )  ( + T4 365 ) ) ( <= ( + T4 453 )( + T3 332 ) ) )
(or ( <= ( + T3 445 )  ( + T4 453 ) ) ( <= ( + T4 518 )( + T3 377 ) ) )
(or ( <= ( + T3 488 )  ( + T4 518 ) ) ( <= ( + T4 532 )( + T3 445 ) ) )
(or ( <= ( + T3 556 )  ( + T4 532 ) ) ( <= ( + T4 606 )( + T3 488 ) ) )
(or ( <= ( + T3 589 )  ( + T4 606 ) ) ( <= ( + T4 688 )( + T3 556 ) ) )
(or ( <= ( + T3 15 ) T5 ) ( <= ( + T5 8 ) T3 ) )
(or ( <= ( + T3 40 )  ( + T5 8 ) ) ( <= ( + T5 105 )( + T3 15 ) ) )
(or ( <= ( + T3 91 )  ( + T5 105 ) ) ( <= ( + T5 184 )( + T3 40 ) ) )
(or ( <= ( + T3 139 )  ( + T5 184 ) ) ( <= ( + T5 201 )( + T3 91 ) ) )
(or ( <= ( + T3 170 )  ( + T5 201 ) ) ( <= ( + T5 255 )( + T3 139 ) ) )
(or ( <= ( + T3 247 )  ( + T5 255 ) ) ( <= ( + T5 264 )( + T3 170 ) ) )
(or ( <= ( + T3 332 )  ( + T5 264 ) ) ( <= ( + T5 295 )( + T3 247 ) ) )
(or ( <= ( + T3 377 )  ( + T5 295 ) ) ( <= ( + T5 315 )( + T3 332 ) ) )
(or ( <= ( + T3 445 )  ( + T5 315 ) ) ( <= ( + T5 348 )( + T3 377 ) ) )
(or ( <= ( + T3 488 )  ( + T5 348 ) ) ( <= ( + T5 381 )( + T3 445 ) ) )
(or ( <= ( + T3 556 )  ( + T5 381 ) ) ( <= ( + T5 448 )( + T3 488 ) ) )
(or ( <= ( + T3 589 )  ( + T5 448 ) ) ( <= ( + T5 512 )( + T3 556 ) ) )
(or ( <= ( + T3 15 ) T6 ) ( <= ( + T6 61 ) T3 ) )
(or ( <= ( + T3 40 )  ( + T6 61 ) ) ( <= ( + T6 112 )( + T3 15 ) ) )
(or ( <= ( + T3 91 )  ( + T6 112 ) ) ( <= ( + T6 120 )( + T3 40 ) ) )
(or ( <= ( + T3 139 )  ( + T6 120 ) ) ( <= ( + T6 149 )( + T3 91 ) ) )
(or ( <= ( + T3 170 )  ( + T6 149 ) ) ( <= ( + T6 194 )( + T3 139 ) ) )
(or ( <= ( + T3 247 )  ( + T6 194 ) ) ( <= ( + T6 222 )( + T3 170 ) ) )
(or ( <= ( + T3 332 )  ( + T6 222 ) ) ( <= ( + T6 235 )( + T3 247 ) ) )
(or ( <= ( + T3 377 )  ( + T6 235 ) ) ( <= ( + T6 243 )( + T3 332 ) ) )
(or ( <= ( + T3 445 )  ( + T6 243 ) ) ( <= ( + T6 322 )( + T3 377 ) ) )
(or ( <= ( + T3 488 )  ( + T6 322 ) ) ( <= ( + T6 409 )( + T3 445 ) ) )
(or ( <= ( + T3 556 )  ( + T6 409 ) ) ( <= ( + T6 505 )( + T3 488 ) ) )
(or ( <= ( + T3 589 )  ( + T6 505 ) ) ( <= ( + T6 558 )( + T3 556 ) ) )
(or ( <= ( + T3 15 ) T7 ) ( <= ( + T7 16 ) T3 ) )
(or ( <= ( + T3 40 )  ( + T7 16 ) ) ( <= ( + T7 101 )( + T3 15 ) ) )
(or ( <= ( + T3 91 )  ( + T7 101 ) ) ( <= ( + T7 194 )( + T3 40 ) ) )
(or ( <= ( + T3 139 )  ( + T7 194 ) ) ( <= ( + T7 226 )( + T3 91 ) ) )
(or ( <= ( + T3 170 )  ( + T7 226 ) ) ( <= ( + T7 276 )( + T3 139 ) ) )
(or ( <= ( + T3 247 )  ( + T7 276 ) ) ( <= ( + T7 342 )( + T3 170 ) ) )
(or ( <= ( + T3 332 )  ( + T7 342 ) ) ( <= ( + T7 355 )( + T3 247 ) ) )
(or ( <= ( + T3 377 )  ( + T7 355 ) ) ( <= ( + T7 364 )( + T3 332 ) ) )
(or ( <= ( + T3 445 )  ( + T7 364 ) ) ( <= ( + T7 378 )( + T3 377 ) ) )
(or ( <= ( + T3 488 )  ( + T7 378 ) ) ( <= ( + T7 470 )( + T3 445 ) ) )
(or ( <= ( + T3 556 )  ( + T7 470 ) ) ( <= ( + T7 495 )( + T3 488 ) ) )
(or ( <= ( + T3 589 )  ( + T7 495 ) ) ( <= ( + T7 514 )( + T3 556 ) ) )
(or ( <= ( + T3 15 ) T8 ) ( <= ( + T8 100 ) T3 ) )
(or ( <= ( + T3 40 )  ( + T8 100 ) ) ( <= ( + T8 107 )( + T3 15 ) ) )
(or ( <= ( + T3 91 )  ( + T8 107 ) ) ( <= ( + T8 145 )( + T3 40 ) ) )
(or ( <= ( + T3 139 )  ( + T8 145 ) ) ( <= ( + T8 230 )( + T3 91 ) ) )
(or ( <= ( + T3 170 )  ( + T8 230 ) ) ( <= ( + T8 270 )( + T3 139 ) ) )
(or ( <= ( + T3 247 )  ( + T8 270 ) ) ( <= ( + T8 327 )( + T3 170 ) ) )
(or ( <= ( + T3 332 )  ( + T8 327 ) ) ( <= ( + T8 375 )( + T3 247 ) ) )
(or ( <= ( + T3 377 )  ( + T8 375 ) ) ( <= ( + T8 427 )( + T3 332 ) ) )
(or ( <= ( + T3 445 )  ( + T8 427 ) ) ( <= ( + T8 486 )( + T3 377 ) ) )
(or ( <= ( + T3 488 )  ( + T8 486 ) ) ( <= ( + T8 493 )( + T3 445 ) ) )
(or ( <= ( + T3 556 )  ( + T8 493 ) ) ( <= ( + T8 525 )( + T3 488 ) ) )
(or ( <= ( + T3 589 )  ( + T8 525 ) ) ( <= ( + T8 529 )( + T3 556 ) ) )
(or ( <= ( + T3 15 ) T9 ) ( <= ( + T9 86 ) T3 ) )
(or ( <= ( + T3 40 )  ( + T9 86 ) ) ( <= ( + T9 131 )( + T3 15 ) ) )
(or ( <= ( + T3 91 )  ( + T9 131 ) ) ( <= ( + T9 194 )( + T3 40 ) ) )
(or ( <= ( + T3 139 )  ( + T9 194 ) ) ( <= ( + T9 259 )( + T3 91 ) ) )
(or ( <= ( + T3 170 )  ( + T9 259 ) ) ( <= ( + T9 290 )( + T3 139 ) ) )
(or ( <= ( + T3 247 )  ( + T9 290 ) ) ( <= ( + T9 300 )( + T3 170 ) ) )
(or ( <= ( + T3 332 )  ( + T9 300 ) ) ( <= ( + T9 317 )( + T3 247 ) ) )
(or ( <= ( + T3 377 )  ( + T9 317 ) ) ( <= ( + T9 415 )( + T3 332 ) ) )
(or ( <= ( + T3 445 )  ( + T9 415 ) ) ( <= ( + T9 461 )( + T3 377 ) ) )
(or ( <= ( + T3 488 )  ( + T9 461 ) ) ( <= ( + T9 522 )( + T3 445 ) ) )
(or ( <= ( + T3 556 )  ( + T9 522 ) ) ( <= ( + T9 551 )( + T3 488 ) ) )
(or ( <= ( + T3 589 )  ( + T9 551 ) ) ( <= ( + T9 647 )( + T3 556 ) ) )
(or ( <= ( + T3 15 ) T10 ) ( <= ( + T10 26 ) T3 ) )
(or ( <= ( + T3 40 )  ( + T10 26 ) ) ( <= ( + T10 120 )( + T3 15 ) ) )
(or ( <= ( + T3 91 )  ( + T10 120 ) ) ( <= ( + T10 124 )( + T3 40 ) ) )
(or ( <= ( + T3 139 )  ( + T10 124 ) ) ( <= ( + T10 215 )( + T3 91 ) ) )
(or ( <= ( + T3 170 )  ( + T10 215 ) ) ( <= ( + T10 300 )( + T3 139 ) ) )
(or ( <= ( + T3 247 )  ( + T10 300 ) ) ( <= ( + T10 381 )( + T3 170 ) ) )
(or ( <= ( + T3 332 )  ( + T10 381 ) ) ( <= ( + T10 390 )( + T3 247 ) ) )
(or ( <= ( + T3 377 )  ( + T10 390 ) ) ( <= ( + T10 426 )( + T3 332 ) ) )
(or ( <= ( + T3 445 )  ( + T10 426 ) ) ( <= ( + T10 513 )( + T3 377 ) ) )
(or ( <= ( + T3 488 )  ( + T10 513 ) ) ( <= ( + T10 560 )( + T3 445 ) ) )
(or ( <= ( + T3 556 )  ( + T10 560 ) ) ( <= ( + T10 580 )( + T3 488 ) ) )
(or ( <= ( + T3 589 )  ( + T10 580 ) ) ( <= ( + T10 658 )( + T3 556 ) ) )
(or ( <= ( + T4 11 ) T5 ) ( <= ( + T5 8 ) T4 ) )
(or ( <= ( + T4 111 )  ( + T5 8 ) ) ( <= ( + T5 105 )( + T4 11 ) ) )
(or ( <= ( + T4 134 )  ( + T5 105 ) ) ( <= ( + T5 184 )( + T4 111 ) ) )
(or ( <= ( + T4 171 )  ( + T5 184 ) ) ( <= ( + T5 201 )( + T4 134 ) ) )
(or ( <= ( + T4 246 )  ( + T5 201 ) ) ( <= ( + T5 255 )( + T4 171 ) ) )
(or ( <= ( + T4 275 )  ( + T5 255 ) ) ( <= ( + T5 264 )( + T4 246 ) ) )
(or ( <= ( + T4 365 )  ( + T5 264 ) ) ( <= ( + T5 295 )( + T4 275 ) ) )
(or ( <= ( + T4 453 )  ( + T5 295 ) ) ( <= ( + T5 315 )( + T4 365 ) ) )
(or ( <= ( + T4 518 )  ( + T5 315 ) ) ( <= ( + T5 348 )( + T4 453 ) ) )
(or ( <= ( + T4 532 )  ( + T5 348 ) ) ( <= ( + T5 381 )( + T4 518 ) ) )
(or ( <= ( + T4 606 )  ( + T5 381 ) ) ( <= ( + T5 448 )( + T4 532 ) ) )
(or ( <= ( + T4 688 )  ( + T5 448 ) ) ( <= ( + T5 512 )( + T4 606 ) ) )
(or ( <= ( + T4 11 ) T6 ) ( <= ( + T6 61 ) T4 ) )
(or ( <= ( + T4 111 )  ( + T6 61 ) ) ( <= ( + T6 112 )( + T4 11 ) ) )
(or ( <= ( + T4 134 )  ( + T6 112 ) ) ( <= ( + T6 120 )( + T4 111 ) ) )
(or ( <= ( + T4 171 )  ( + T6 120 ) ) ( <= ( + T6 149 )( + T4 134 ) ) )
(or ( <= ( + T4 246 )  ( + T6 149 ) ) ( <= ( + T6 194 )( + T4 171 ) ) )
(or ( <= ( + T4 275 )  ( + T6 194 ) ) ( <= ( + T6 222 )( + T4 246 ) ) )
(or ( <= ( + T4 365 )  ( + T6 222 ) ) ( <= ( + T6 235 )( + T4 275 ) ) )
(or ( <= ( + T4 453 )  ( + T6 235 ) ) ( <= ( + T6 243 )( + T4 365 ) ) )
(or ( <= ( + T4 518 )  ( + T6 243 ) ) ( <= ( + T6 322 )( + T4 453 ) ) )
(or ( <= ( + T4 532 )  ( + T6 322 ) ) ( <= ( + T6 409 )( + T4 518 ) ) )
(or ( <= ( + T4 606 )  ( + T6 409 ) ) ( <= ( + T6 505 )( + T4 532 ) ) )
(or ( <= ( + T4 688 )  ( + T6 505 ) ) ( <= ( + T6 558 )( + T4 606 ) ) )
(or ( <= ( + T4 11 ) T7 ) ( <= ( + T7 16 ) T4 ) )
(or ( <= ( + T4 111 )  ( + T7 16 ) ) ( <= ( + T7 101 )( + T4 11 ) ) )
(or ( <= ( + T4 134 )  ( + T7 101 ) ) ( <= ( + T7 194 )( + T4 111 ) ) )
(or ( <= ( + T4 171 )  ( + T7 194 ) ) ( <= ( + T7 226 )( + T4 134 ) ) )
(or ( <= ( + T4 246 )  ( + T7 226 ) ) ( <= ( + T7 276 )( + T4 171 ) ) )
(or ( <= ( + T4 275 )  ( + T7 276 ) ) ( <= ( + T7 342 )( + T4 246 ) ) )
(or ( <= ( + T4 365 )  ( + T7 342 ) ) ( <= ( + T7 355 )( + T4 275 ) ) )
(or ( <= ( + T4 453 )  ( + T7 355 ) ) ( <= ( + T7 364 )( + T4 365 ) ) )
(or ( <= ( + T4 518 )  ( + T7 364 ) ) ( <= ( + T7 378 )( + T4 453 ) ) )
(or ( <= ( + T4 532 )  ( + T7 378 ) ) ( <= ( + T7 470 )( + T4 518 ) ) )
(or ( <= ( + T4 606 )  ( + T7 470 ) ) ( <= ( + T7 495 )( + T4 532 ) ) )
(or ( <= ( + T4 688 )  ( + T7 495 ) ) ( <= ( + T7 514 )( + T4 606 ) ) )
(or ( <= ( + T4 11 ) T8 ) ( <= ( + T8 100 ) T4 ) )
(or ( <= ( + T4 111 )  ( + T8 100 ) ) ( <= ( + T8 107 )( + T4 11 ) ) )
(or ( <= ( + T4 134 )  ( + T8 107 ) ) ( <= ( + T8 145 )( + T4 111 ) ) )
(or ( <= ( + T4 171 )  ( + T8 145 ) ) ( <= ( + T8 230 )( + T4 134 ) ) )
(or ( <= ( + T4 246 )  ( + T8 230 ) ) ( <= ( + T8 270 )( + T4 171 ) ) )
(or ( <= ( + T4 275 )  ( + T8 270 ) ) ( <= ( + T8 327 )( + T4 246 ) ) )
(or ( <= ( + T4 365 )  ( + T8 327 ) ) ( <= ( + T8 375 )( + T4 275 ) ) )
(or ( <= ( + T4 453 )  ( + T8 375 ) ) ( <= ( + T8 427 )( + T4 365 ) ) )
(or ( <= ( + T4 518 )  ( + T8 427 ) ) ( <= ( + T8 486 )( + T4 453 ) ) )
(or ( <= ( + T4 532 )  ( + T8 486 ) ) ( <= ( + T8 493 )( + T4 518 ) ) )
(or ( <= ( + T4 606 )  ( + T8 493 ) ) ( <= ( + T8 525 )( + T4 532 ) ) )
(or ( <= ( + T4 688 )  ( + T8 525 ) ) ( <= ( + T8 529 )( + T4 606 ) ) )
(or ( <= ( + T4 11 ) T9 ) ( <= ( + T9 86 ) T4 ) )
(or ( <= ( + T4 111 )  ( + T9 86 ) ) ( <= ( + T9 131 )( + T4 11 ) ) )
(or ( <= ( + T4 134 )  ( + T9 131 ) ) ( <= ( + T9 194 )( + T4 111 ) ) )
(or ( <= ( + T4 171 )  ( + T9 194 ) ) ( <= ( + T9 259 )( + T4 134 ) ) )
(or ( <= ( + T4 246 )  ( + T9 259 ) ) ( <= ( + T9 290 )( + T4 171 ) ) )
(or ( <= ( + T4 275 )  ( + T9 290 ) ) ( <= ( + T9 300 )( + T4 246 ) ) )
(or ( <= ( + T4 365 )  ( + T9 300 ) ) ( <= ( + T9 317 )( + T4 275 ) ) )
(or ( <= ( + T4 453 )  ( + T9 317 ) ) ( <= ( + T9 415 )( + T4 365 ) ) )
(or ( <= ( + T4 518 )  ( + T9 415 ) ) ( <= ( + T9 461 )( + T4 453 ) ) )
(or ( <= ( + T4 532 )  ( + T9 461 ) ) ( <= ( + T9 522 )( + T4 518 ) ) )
(or ( <= ( + T4 606 )  ( + T9 522 ) ) ( <= ( + T9 551 )( + T4 532 ) ) )
(or ( <= ( + T4 688 )  ( + T9 551 ) ) ( <= ( + T9 647 )( + T4 606 ) ) )
(or ( <= ( + T4 11 ) T10 ) ( <= ( + T10 26 ) T4 ) )
(or ( <= ( + T4 111 )  ( + T10 26 ) ) ( <= ( + T10 120 )( + T4 11 ) ) )
(or ( <= ( + T4 134 )  ( + T10 120 ) ) ( <= ( + T10 124 )( + T4 111 ) ) )
(or ( <= ( + T4 171 )  ( + T10 124 ) ) ( <= ( + T10 215 )( + T4 134 ) ) )
(or ( <= ( + T4 246 )  ( + T10 215 ) ) ( <= ( + T10 300 )( + T4 171 ) ) )
(or ( <= ( + T4 275 )  ( + T10 300 ) ) ( <= ( + T10 381 )( + T4 246 ) ) )
(or ( <= ( + T4 365 )  ( + T10 381 ) ) ( <= ( + T10 390 )( + T4 275 ) ) )
(or ( <= ( + T4 453 )  ( + T10 390 ) ) ( <= ( + T10 426 )( + T4 365 ) ) )
(or ( <= ( + T4 518 )  ( + T10 426 ) ) ( <= ( + T10 513 )( + T4 453 ) ) )
(or ( <= ( + T4 532 )  ( + T10 513 ) ) ( <= ( + T10 560 )( + T4 518 ) ) )
(or ( <= ( + T4 606 )  ( + T10 560 ) ) ( <= ( + T10 580 )( + T4 532 ) ) )
(or ( <= ( + T4 688 )  ( + T10 580 ) ) ( <= ( + T10 658 )( + T4 606 ) ) )
(or ( <= ( + T5 8 ) T6 ) ( <= ( + T6 61 ) T5 ) )
(or ( <= ( + T5 105 )  ( + T6 61 ) ) ( <= ( + T6 112 )( + T5 8 ) ) )
(or ( <= ( + T5 184 )  ( + T6 112 ) ) ( <= ( + T6 120 )( + T5 105 ) ) )
(or ( <= ( + T5 201 )  ( + T6 120 ) ) ( <= ( + T6 149 )( + T5 184 ) ) )
(or ( <= ( + T5 255 )  ( + T6 149 ) ) ( <= ( + T6 194 )( + T5 201 ) ) )
(or ( <= ( + T5 264 )  ( + T6 194 ) ) ( <= ( + T6 222 )( + T5 255 ) ) )
(or ( <= ( + T5 295 )  ( + T6 222 ) ) ( <= ( + T6 235 )( + T5 264 ) ) )
(or ( <= ( + T5 315 )  ( + T6 235 ) ) ( <= ( + T6 243 )( + T5 295 ) ) )
(or ( <= ( + T5 348 )  ( + T6 243 ) ) ( <= ( + T6 322 )( + T5 315 ) ) )
(or ( <= ( + T5 381 )  ( + T6 322 ) ) ( <= ( + T6 409 )( + T5 348 ) ) )
(or ( <= ( + T5 448 )  ( + T6 409 ) ) ( <= ( + T6 505 )( + T5 381 ) ) )
(or ( <= ( + T5 512 )  ( + T6 505 ) ) ( <= ( + T6 558 )( + T5 448 ) ) )
(or ( <= ( + T5 8 ) T7 ) ( <= ( + T7 16 ) T5 ) )
(or ( <= ( + T5 105 )  ( + T7 16 ) ) ( <= ( + T7 101 )( + T5 8 ) ) )
(or ( <= ( + T5 184 )  ( + T7 101 ) ) ( <= ( + T7 194 )( + T5 105 ) ) )
(or ( <= ( + T5 201 )  ( + T7 194 ) ) ( <= ( + T7 226 )( + T5 184 ) ) )
(or ( <= ( + T5 255 )  ( + T7 226 ) ) ( <= ( + T7 276 )( + T5 201 ) ) )
(or ( <= ( + T5 264 )  ( + T7 276 ) ) ( <= ( + T7 342 )( + T5 255 ) ) )
(or ( <= ( + T5 295 )  ( + T7 342 ) ) ( <= ( + T7 355 )( + T5 264 ) ) )
(or ( <= ( + T5 315 )  ( + T7 355 ) ) ( <= ( + T7 364 )( + T5 295 ) ) )
(or ( <= ( + T5 348 )  ( + T7 364 ) ) ( <= ( + T7 378 )( + T5 315 ) ) )
(or ( <= ( + T5 381 )  ( + T7 378 ) ) ( <= ( + T7 470 )( + T5 348 ) ) )
(or ( <= ( + T5 448 )  ( + T7 470 ) ) ( <= ( + T7 495 )( + T5 381 ) ) )
(or ( <= ( + T5 512 )  ( + T7 495 ) ) ( <= ( + T7 514 )( + T5 448 ) ) )
(or ( <= ( + T5 8 ) T8 ) ( <= ( + T8 100 ) T5 ) )
(or ( <= ( + T5 105 )  ( + T8 100 ) ) ( <= ( + T8 107 )( + T5 8 ) ) )
(or ( <= ( + T5 184 )  ( + T8 107 ) ) ( <= ( + T8 145 )( + T5 105 ) ) )
(or ( <= ( + T5 201 )  ( + T8 145 ) ) ( <= ( + T8 230 )( + T5 184 ) ) )
(or ( <= ( + T5 255 )  ( + T8 230 ) ) ( <= ( + T8 270 )( + T5 201 ) ) )
(or ( <= ( + T5 264 )  ( + T8 270 ) ) ( <= ( + T8 327 )( + T5 255 ) ) )
(or ( <= ( + T5 295 )  ( + T8 327 ) ) ( <= ( + T8 375 )( + T5 264 ) ) )
(or ( <= ( + T5 315 )  ( + T8 375 ) ) ( <= ( + T8 427 )( + T5 295 ) ) )
(or ( <= ( + T5 348 )  ( + T8 427 ) ) ( <= ( + T8 486 )( + T5 315 ) ) )
(or ( <= ( + T5 381 )  ( + T8 486 ) ) ( <= ( + T8 493 )( + T5 348 ) ) )
(or ( <= ( + T5 448 )  ( + T8 493 ) ) ( <= ( + T8 525 )( + T5 381 ) ) )
(or ( <= ( + T5 512 )  ( + T8 525 ) ) ( <= ( + T8 529 )( + T5 448 ) ) )
(or ( <= ( + T5 8 ) T9 ) ( <= ( + T9 86 ) T5 ) )
(or ( <= ( + T5 105 )  ( + T9 86 ) ) ( <= ( + T9 131 )( + T5 8 ) ) )
(or ( <= ( + T5 184 )  ( + T9 131 ) ) ( <= ( + T9 194 )( + T5 105 ) ) )
(or ( <= ( + T5 201 )  ( + T9 194 ) ) ( <= ( + T9 259 )( + T5 184 ) ) )
(or ( <= ( + T5 255 )  ( + T9 259 ) ) ( <= ( + T9 290 )( + T5 201 ) ) )
(or ( <= ( + T5 264 )  ( + T9 290 ) ) ( <= ( + T9 300 )( + T5 255 ) ) )
(or ( <= ( + T5 295 )  ( + T9 300 ) ) ( <= ( + T9 317 )( + T5 264 ) ) )
(or ( <= ( + T5 315 )  ( + T9 317 ) ) ( <= ( + T9 415 )( + T5 295 ) ) )
(or ( <= ( + T5 348 )  ( + T9 415 ) ) ( <= ( + T9 461 )( + T5 315 ) ) )
(or ( <= ( + T5 381 )  ( + T9 461 ) ) ( <= ( + T9 522 )( + T5 348 ) ) )
(or ( <= ( + T5 448 )  ( + T9 522 ) ) ( <= ( + T9 551 )( + T5 381 ) ) )
(or ( <= ( + T5 512 )  ( + T9 551 ) ) ( <= ( + T9 647 )( + T5 448 ) ) )
(or ( <= ( + T5 8 ) T10 ) ( <= ( + T10 26 ) T5 ) )
(or ( <= ( + T5 105 )  ( + T10 26 ) ) ( <= ( + T10 120 )( + T5 8 ) ) )
(or ( <= ( + T5 184 )  ( + T10 120 ) ) ( <= ( + T10 124 )( + T5 105 ) ) )
(or ( <= ( + T5 201 )  ( + T10 124 ) ) ( <= ( + T10 215 )( + T5 184 ) ) )
(or ( <= ( + T5 255 )  ( + T10 215 ) ) ( <= ( + T10 300 )( + T5 201 ) ) )
(or ( <= ( + T5 264 )  ( + T10 300 ) ) ( <= ( + T10 381 )( + T5 255 ) ) )
(or ( <= ( + T5 295 )  ( + T10 381 ) ) ( <= ( + T10 390 )( + T5 264 ) ) )
(or ( <= ( + T5 315 )  ( + T10 390 ) ) ( <= ( + T10 426 )( + T5 295 ) ) )
(or ( <= ( + T5 348 )  ( + T10 426 ) ) ( <= ( + T10 513 )( + T5 315 ) ) )
(or ( <= ( + T5 381 )  ( + T10 513 ) ) ( <= ( + T10 560 )( + T5 348 ) ) )
(or ( <= ( + T5 448 )  ( + T10 560 ) ) ( <= ( + T10 580 )( + T5 381 ) ) )
(or ( <= ( + T5 512 )  ( + T10 580 ) ) ( <= ( + T10 658 )( + T5 448 ) ) )
(or ( <= ( + T6 61 ) T7 ) ( <= ( + T7 16 ) T6 ) )
(or ( <= ( + T6 112 )  ( + T7 16 ) ) ( <= ( + T7 101 )( + T6 61 ) ) )
(or ( <= ( + T6 120 )  ( + T7 101 ) ) ( <= ( + T7 194 )( + T6 112 ) ) )
(or ( <= ( + T6 149 )  ( + T7 194 ) ) ( <= ( + T7 226 )( + T6 120 ) ) )
(or ( <= ( + T6 194 )  ( + T7 226 ) ) ( <= ( + T7 276 )( + T6 149 ) ) )
(or ( <= ( + T6 222 )  ( + T7 276 ) ) ( <= ( + T7 342 )( + T6 194 ) ) )
(or ( <= ( + T6 235 )  ( + T7 342 ) ) ( <= ( + T7 355 )( + T6 222 ) ) )
(or ( <= ( + T6 243 )  ( + T7 355 ) ) ( <= ( + T7 364 )( + T6 235 ) ) )
(or ( <= ( + T6 322 )  ( + T7 364 ) ) ( <= ( + T7 378 )( + T6 243 ) ) )
(or ( <= ( + T6 409 )  ( + T7 378 ) ) ( <= ( + T7 470 )( + T6 322 ) ) )
(or ( <= ( + T6 505 )  ( + T7 470 ) ) ( <= ( + T7 495 )( + T6 409 ) ) )
(or ( <= ( + T6 558 )  ( + T7 495 ) ) ( <= ( + T7 514 )( + T6 505 ) ) )
(or ( <= ( + T6 61 ) T8 ) ( <= ( + T8 100 ) T6 ) )
(or ( <= ( + T6 112 )  ( + T8 100 ) ) ( <= ( + T8 107 )( + T6 61 ) ) )
(or ( <= ( + T6 120 )  ( + T8 107 ) ) ( <= ( + T8 145 )( + T6 112 ) ) )
(or ( <= ( + T6 149 )  ( + T8 145 ) ) ( <= ( + T8 230 )( + T6 120 ) ) )
(or ( <= ( + T6 194 )  ( + T8 230 ) ) ( <= ( + T8 270 )( + T6 149 ) ) )
(or ( <= ( + T6 222 )  ( + T8 270 ) ) ( <= ( + T8 327 )( + T6 194 ) ) )
(or ( <= ( + T6 235 )  ( + T8 327 ) ) ( <= ( + T8 375 )( + T6 222 ) ) )
(or ( <= ( + T6 243 )  ( + T8 375 ) ) ( <= ( + T8 427 )( + T6 235 ) ) )
(or ( <= ( + T6 322 )  ( + T8 427 ) ) ( <= ( + T8 486 )( + T6 243 ) ) )
(or ( <= ( + T6 409 )  ( + T8 486 ) ) ( <= ( + T8 493 )( + T6 322 ) ) )
(or ( <= ( + T6 505 )  ( + T8 493 ) ) ( <= ( + T8 525 )( + T6 409 ) ) )
(or ( <= ( + T6 558 )  ( + T8 525 ) ) ( <= ( + T8 529 )( + T6 505 ) ) )
(or ( <= ( + T6 61 ) T9 ) ( <= ( + T9 86 ) T6 ) )
(or ( <= ( + T6 112 )  ( + T9 86 ) ) ( <= ( + T9 131 )( + T6 61 ) ) )
(or ( <= ( + T6 120 )  ( + T9 131 ) ) ( <= ( + T9 194 )( + T6 112 ) ) )
(or ( <= ( + T6 149 )  ( + T9 194 ) ) ( <= ( + T9 259 )( + T6 120 ) ) )
(or ( <= ( + T6 194 )  ( + T9 259 ) ) ( <= ( + T9 290 )( + T6 149 ) ) )
(or ( <= ( + T6 222 )  ( + T9 290 ) ) ( <= ( + T9 300 )( + T6 194 ) ) )
(or ( <= ( + T6 235 )  ( + T9 300 ) ) ( <= ( + T9 317 )( + T6 222 ) ) )
(or ( <= ( + T6 243 )  ( + T9 317 ) ) ( <= ( + T9 415 )( + T6 235 ) ) )
(or ( <= ( + T6 322 )  ( + T9 415 ) ) ( <= ( + T9 461 )( + T6 243 ) ) )
(or ( <= ( + T6 409 )  ( + T9 461 ) ) ( <= ( + T9 522 )( + T6 322 ) ) )
(or ( <= ( + T6 505 )  ( + T9 522 ) ) ( <= ( + T9 551 )( + T6 409 ) ) )
(or ( <= ( + T6 558 )  ( + T9 551 ) ) ( <= ( + T9 647 )( + T6 505 ) ) )
(or ( <= ( + T6 61 ) T10 ) ( <= ( + T10 26 ) T6 ) )
(or ( <= ( + T6 112 )  ( + T10 26 ) ) ( <= ( + T10 120 )( + T6 61 ) ) )
(or ( <= ( + T6 120 )  ( + T10 120 ) ) ( <= ( + T10 124 )( + T6 112 ) ) )
(or ( <= ( + T6 149 )  ( + T10 124 ) ) ( <= ( + T10 215 )( + T6 120 ) ) )
(or ( <= ( + T6 194 )  ( + T10 215 ) ) ( <= ( + T10 300 )( + T6 149 ) ) )
(or ( <= ( + T6 222 )  ( + T10 300 ) ) ( <= ( + T10 381 )( + T6 194 ) ) )
(or ( <= ( + T6 235 )  ( + T10 381 ) ) ( <= ( + T10 390 )( + T6 222 ) ) )
(or ( <= ( + T6 243 )  ( + T10 390 ) ) ( <= ( + T10 426 )( + T6 235 ) ) )
(or ( <= ( + T6 322 )  ( + T10 426 ) ) ( <= ( + T10 513 )( + T6 243 ) ) )
(or ( <= ( + T6 409 )  ( + T10 513 ) ) ( <= ( + T10 560 )( + T6 322 ) ) )
(or ( <= ( + T6 505 )  ( + T10 560 ) ) ( <= ( + T10 580 )( + T6 409 ) ) )
(or ( <= ( + T6 558 )  ( + T10 580 ) ) ( <= ( + T10 658 )( + T6 505 ) ) )
(or ( <= ( + T7 16 ) T8 ) ( <= ( + T8 100 ) T7 ) )
(or ( <= ( + T7 101 )  ( + T8 100 ) ) ( <= ( + T8 107 )( + T7 16 ) ) )
(or ( <= ( + T7 194 )  ( + T8 107 ) ) ( <= ( + T8 145 )( + T7 101 ) ) )
(or ( <= ( + T7 226 )  ( + T8 145 ) ) ( <= ( + T8 230 )( + T7 194 ) ) )
(or ( <= ( + T7 276 )  ( + T8 230 ) ) ( <= ( + T8 270 )( + T7 226 ) ) )
(or ( <= ( + T7 342 )  ( + T8 270 ) ) ( <= ( + T8 327 )( + T7 276 ) ) )
(or ( <= ( + T7 355 )  ( + T8 327 ) ) ( <= ( + T8 375 )( + T7 342 ) ) )
(or ( <= ( + T7 364 )  ( + T8 375 ) ) ( <= ( + T8 427 )( + T7 355 ) ) )
(or ( <= ( + T7 378 )  ( + T8 427 ) ) ( <= ( + T8 486 )( + T7 364 ) ) )
(or ( <= ( + T7 470 )  ( + T8 486 ) ) ( <= ( + T8 493 )( + T7 378 ) ) )
(or ( <= ( + T7 495 )  ( + T8 493 ) ) ( <= ( + T8 525 )( + T7 470 ) ) )
(or ( <= ( + T7 514 )  ( + T8 525 ) ) ( <= ( + T8 529 )( + T7 495 ) ) )
(or ( <= ( + T7 16 ) T9 ) ( <= ( + T9 86 ) T7 ) )
(or ( <= ( + T7 101 )  ( + T9 86 ) ) ( <= ( + T9 131 )( + T7 16 ) ) )
(or ( <= ( + T7 194 )  ( + T9 131 ) ) ( <= ( + T9 194 )( + T7 101 ) ) )
(or ( <= ( + T7 226 )  ( + T9 194 ) ) ( <= ( + T9 259 )( + T7 194 ) ) )
(or ( <= ( + T7 276 )  ( + T9 259 ) ) ( <= ( + T9 290 )( + T7 226 ) ) )
(or ( <= ( + T7 342 )  ( + T9 290 ) ) ( <= ( + T9 300 )( + T7 276 ) ) )
(or ( <= ( + T7 355 )  ( + T9 300 ) ) ( <= ( + T9 317 )( + T7 342 ) ) )
(or ( <= ( + T7 364 )  ( + T9 317 ) ) ( <= ( + T9 415 )( + T7 355 ) ) )
(or ( <= ( + T7 378 )  ( + T9 415 ) ) ( <= ( + T9 461 )( + T7 364 ) ) )
(or ( <= ( + T7 470 )  ( + T9 461 ) ) ( <= ( + T9 522 )( + T7 378 ) ) )
(or ( <= ( + T7 495 )  ( + T9 522 ) ) ( <= ( + T9 551 )( + T7 470 ) ) )
(or ( <= ( + T7 514 )  ( + T9 551 ) ) ( <= ( + T9 647 )( + T7 495 ) ) )
(or ( <= ( + T7 16 ) T10 ) ( <= ( + T10 26 ) T7 ) )
(or ( <= ( + T7 101 )  ( + T10 26 ) ) ( <= ( + T10 120 )( + T7 16 ) ) )
(or ( <= ( + T7 194 )  ( + T10 120 ) ) ( <= ( + T10 124 )( + T7 101 ) ) )
(or ( <= ( + T7 226 )  ( + T10 124 ) ) ( <= ( + T10 215 )( + T7 194 ) ) )
(or ( <= ( + T7 276 )  ( + T10 215 ) ) ( <= ( + T10 300 )( + T7 226 ) ) )
(or ( <= ( + T7 342 )  ( + T10 300 ) ) ( <= ( + T10 381 )( + T7 276 ) ) )
(or ( <= ( + T7 355 )  ( + T10 381 ) ) ( <= ( + T10 390 )( + T7 342 ) ) )
(or ( <= ( + T7 364 )  ( + T10 390 ) ) ( <= ( + T10 426 )( + T7 355 ) ) )
(or ( <= ( + T7 378 )  ( + T10 426 ) ) ( <= ( + T10 513 )( + T7 364 ) ) )
(or ( <= ( + T7 470 )  ( + T10 513 ) ) ( <= ( + T10 560 )( + T7 378 ) ) )
(or ( <= ( + T7 495 )  ( + T10 560 ) ) ( <= ( + T10 580 )( + T7 470 ) ) )
(or ( <= ( + T7 514 )  ( + T10 580 ) ) ( <= ( + T10 658 )( + T7 495 ) ) )
(or ( <= ( + T8 100 ) T9 ) ( <= ( + T9 86 ) T8 ) )
(or ( <= ( + T8 107 )  ( + T9 86 ) ) ( <= ( + T9 131 )( + T8 100 ) ) )
(or ( <= ( + T8 145 )  ( + T9 131 ) ) ( <= ( + T9 194 )( + T8 107 ) ) )
(or ( <= ( + T8 230 )  ( + T9 194 ) ) ( <= ( + T9 259 )( + T8 145 ) ) )
(or ( <= ( + T8 270 )  ( + T9 259 ) ) ( <= ( + T9 290 )( + T8 230 ) ) )
(or ( <= ( + T8 327 )  ( + T9 290 ) ) ( <= ( + T9 300 )( + T8 270 ) ) )
(or ( <= ( + T8 375 )  ( + T9 300 ) ) ( <= ( + T9 317 )( + T8 327 ) ) )
(or ( <= ( + T8 427 )  ( + T9 317 ) ) ( <= ( + T9 415 )( + T8 375 ) ) )
(or ( <= ( + T8 486 )  ( + T9 415 ) ) ( <= ( + T9 461 )( + T8 427 ) ) )
(or ( <= ( + T8 493 )  ( + T9 461 ) ) ( <= ( + T9 522 )( + T8 486 ) ) )
(or ( <= ( + T8 525 )  ( + T9 522 ) ) ( <= ( + T9 551 )( + T8 493 ) ) )
(or ( <= ( + T8 529 )  ( + T9 551 ) ) ( <= ( + T9 647 )( + T8 525 ) ) )
(or ( <= ( + T8 100 ) T10 ) ( <= ( + T10 26 ) T8 ) )
(or ( <= ( + T8 107 )  ( + T10 26 ) ) ( <= ( + T10 120 )( + T8 100 ) ) )
(or ( <= ( + T8 145 )  ( + T10 120 ) ) ( <= ( + T10 124 )( + T8 107 ) ) )
(or ( <= ( + T8 230 )  ( + T10 124 ) ) ( <= ( + T10 215 )( + T8 145 ) ) )
(or ( <= ( + T8 270 )  ( + T10 215 ) ) ( <= ( + T10 300 )( + T8 230 ) ) )
(or ( <= ( + T8 327 )  ( + T10 300 ) ) ( <= ( + T10 381 )( + T8 270 ) ) )
(or ( <= ( + T8 375 )  ( + T10 381 ) ) ( <= ( + T10 390 )( + T8 327 ) ) )
(or ( <= ( + T8 427 )  ( + T10 390 ) ) ( <= ( + T10 426 )( + T8 375 ) ) )
(or ( <= ( + T8 486 )  ( + T10 426 ) ) ( <= ( + T10 513 )( + T8 427 ) ) )
(or ( <= ( + T8 493 )  ( + T10 513 ) ) ( <= ( + T10 560 )( + T8 486 ) ) )
(or ( <= ( + T8 525 )  ( + T10 560 ) ) ( <= ( + T10 580 )( + T8 493 ) ) )
(or ( <= ( + T8 529 )  ( + T10 580 ) ) ( <= ( + T10 658 )( + T8 525 ) ) )
(or ( <= ( + T9 86 ) T10 ) ( <= ( + T10 26 ) T9 ) )
(or ( <= ( + T9 131 )  ( + T10 26 ) ) ( <= ( + T10 120 )( + T9 86 ) ) )
(or ( <= ( + T9 194 )  ( + T10 120 ) ) ( <= ( + T10 124 )( + T9 131 ) ) )
(or ( <= ( + T9 259 )  ( + T10 124 ) ) ( <= ( + T10 215 )( + T9 194 ) ) )
(or ( <= ( + T9 290 )  ( + T10 215 ) ) ( <= ( + T10 300 )( + T9 259 ) ) )
(or ( <= ( + T9 300 )  ( + T10 300 ) ) ( <= ( + T10 381 )( + T9 290 ) ) )
(or ( <= ( + T9 317 )  ( + T10 381 ) ) ( <= ( + T10 390 )( + T9 300 ) ) )
(or ( <= ( + T9 415 )  ( + T10 390 ) ) ( <= ( + T10 426 )( + T9 317 ) ) )
(or ( <= ( + T9 461 )  ( + T10 426 ) ) ( <= ( + T10 513 )( + T9 415 ) ) )
(or ( <= ( + T9 522 )  ( + T10 513 ) ) ( <= ( + T10 560 )( + T9 461 ) ) )
(or ( <= ( + T9 551 )  ( + T10 560 ) ) ( <= ( + T10 580 )( + T9 522 ) ) )
(or ( <= ( + T9 647 )  ( + T10 580 ) ) ( <= ( + T10 658 )( + T9 551 ) ) )
( <= ( + T1 650 ) Z)
( <= ( + T2 597 ) Z)
( <= ( + T3 589 ) Z)
( <= ( + T4 688 ) Z)
( <= ( + T5 512 ) Z)
( <= ( + T6 558 ) Z)
( <= ( + T7 514 ) Z)
( <= ( + T8 529 ) Z)
( <= ( + T9 647 ) Z)
( <= ( + T10 658 ) Z)
( >= T1 0 )
( >= T2 0 )
( >= T3 0 )
( >= T4 0 )
( >= T5 0 )
( >= T6 0 )
( >= T7 0 )
( >= T8 0 )
( >= T9 0 )
( >= T10 0 )
) )
)(=> $phi $goal))))